certificates/rado_a5_c144_N29.cnf
c Rad2 upper bound instance: x1 + 5*x2 - x3 = 144, interval [1,29]
p cnf 29 206
1 2 29 0
-1 -2 -29 0
2 3 29 0
-2 -3 -29 0
3 4 29 0
-3 -4 -29 0
4 5 29 0
-4 -5 -29 0
1 5 28 0
-1 -5 -28 0
5 6 29 0
-5 -6 -29 0
2 6 28 0
-2 -6 -28 0
6 7 29 0
-6 -7 -29 0
3 7 28 0
-3 -7 -28 0
7 8 29 0
-7 -8 -29 0
4 8 28 0
-4 -8 -28 0
8 9 29 0
-8 -9 -29 0
5 9 28 0
-5 -9 -28 0
9 10 29 0
-9 -10 -29 0
1 10 27 0
-1 -10 -27 0
6 10 28 0
-6 -10 -28 0
10 11 29 0
-10 -11 -29 0
2 11 27 0
-2 -11 -27 0
7 11 28 0
-7 -11 -28 0
11 12 29 0
-11 -12 -29 0
3 12 27 0
-3 -12 -27 0
8 12 28 0
-8 -12 -28 0
12 13 29 0
-12 -13 -29 0
4 13 27 0
-4 -13 -27 0
9 13 28 0
-9 -13 -28 0
13 14 29 0
-13 -14 -29 0
5 14 27 0
-5 -14 -27 0
10 14 28 0
-10 -14 -28 0
14 15 29 0
-14 -15 -29 0
1 15 26 0
-1 -15 -26 0
6 15 27 0
-6 -15 -27 0
11 15 28 0
-11 -15 -28 0
15 16 29 0
-15 -16 -29 0
2 16 26 0
-2 -16 -26 0
7 16 27 0
-7 -16 -27 0
12 16 28 0
-12 -16 -28 0
16 17 29 0
-16 -17 -29 0
3 17 26 0
-3 -17 -26 0
8 17 27 0
-8 -17 -27 0
13 17 28 0
-13 -17 -28 0
17 18 29 0
-17 -18 -29 0
4 18 26 0
-4 -18 -26 0
9 18 27 0
-9 -18 -27 0
14 18 28 0
-14 -18 -28 0
18 19 29 0
-18 -19 -29 0
5 19 26 0
-5 -19 -26 0
10 19 27 0
-10 -19 -27 0
15 19 28 0
-15 -19 -28 0
19 20 29 0
-19 -20 -29 0
1 20 25 0
-1 -20 -25 0
6 20 26 0
-6 -20 -26 0
11 20 27 0
-11 -20 -27 0
16 20 28 0
-16 -20 -28 0
20 21 29 0
-20 -21 -29 0
2 21 25 0
-2 -21 -25 0
7 21 26 0
-7 -21 -26 0
12 21 27 0
-12 -21 -27 0
17 21 28 0
-17 -21 -28 0
21 22 29 0
-21 -22 -29 0
3 22 25 0
-3 -22 -25 0
8 22 26 0
-8 -22 -26 0
13 22 27 0
-13 -22 -27 0
18 22 28 0
-18 -22 -28 0
22 23 29 0
-22 -23 -29 0
4 23 25 0
-4 -23 -25 0
9 23 26 0
-9 -23 -26 0
14 23 27 0
-14 -23 -27 0
19 23 28 0
-19 -23 -28 0
23 24 29 0
-23 -24 -29 0
5 24 25 0
-5 -24 -25 0
10 24 26 0
-10 -24 -26 0
15 24 27 0
-15 -24 -27 0
20 24 28 0
-20 -24 -28 0
24 25 29 0
-24 -25 -29 0
1 24 25 0
-1 -24 -25 0
6 25 0
-6 -25 0
11 25 26 0
-11 -25 -26 0
16 25 27 0
-16 -25 -27 0
21 25 28 0
-21 -25 -28 0
25 26 29 0
-25 -26 -29 0
2 24 26 0
-2 -24 -26 0
7 25 26 0
-7 -25 -26 0
12 26 0
-12 -26 0
17 26 27 0
-17 -26 -27 0
22 26 28 0
-22 -26 -28 0
26 27 29 0
-26 -27 -29 0
3 24 27 0
-3 -24 -27 0
8 25 27 0
-8 -25 -27 0
13 26 27 0
-13 -26 -27 0
18 27 0
-18 -27 0
23 27 28 0
-23 -27 -28 0
27 28 29 0
-27 -28 -29 0
4 24 28 0
-4 -24 -28 0
9 25 28 0
-9 -25 -28 0
14 26 28 0
-14 -26 -28 0
19 27 28 0
-19 -27 -28 0
24 28 0
-24 -28 0
28 29 0
-28 -29 0
5 24 29 0
-5 -24 -29 0
10 25 29 0
-10 -25 -29 0
15 26 29 0
-15 -26 -29 0
20 27 29 0
-20 -27 -29 0
25 28 29 0
-25 -28 -29 0
