certificates/rado_a5_c144_N29.drat
-29 0
28 0
-24 0
23 0
25 0
5 0
-4 0
-19 0
-27 0
-6 0
-21 0
-9 0
-1 0
3 0
13 0
18 0
10 0
20 0
26 0
15 0
7 0
12 0
22 0
8 0
2 0
0
